AES/1_4_4/ssaes_r1-20_c4_rw1_e4_f0_k1-20_aes_1base_box_aes_mc_bidirectional/ExperimentMinisat_r3_k13cnf_2011-11-18-104436/Result
WARNING: for repeatability, setting FPU to use double precision
============================[ Problem Statistics ]=============================
|                                                                             |
|  Number of variables:           264                                         |
|  Number of clauses:            1045                                         |
|  Parse time:                   0.00 s                                       |
|  Eliminated clauses:           0.00 Mb                                      |
|  Simplification time:          0.00 s                                       |
|                                                                             |
=============================[ Search Statistics ]==============================
| Conflicts  |          ORIGINAL         |          LEARNT          | Progress |
|            |    Vars  Clauses Literals |    Limit  Clauses Lit/Cl |          |
================================================================================
|        100 |     156      757     2464 |      277      100     11 | 16.670 % |
|        250 |     156      757     2464 |      305      250     12 | 16.668 % |
===============================================================================
restarts              : 3
conflicts             : 384            (54873 /sec)
decisions             : 426            (0.00 % random) (60875 /sec)
propagations          : 27356          (3909117 /sec)
conflict literals     : 4582           (32.98 % deleted)
Memory used           : 8.00 MB
CPU time              : 0.006998 s

SATISFIABLE
